100
1000
250
0 0
-10 -38
-10 -38
-10 -38
-10 -38
-10 -38
-10 -38
-10 -38
-10 -38
-10 -38
-10 -38
-10 -38
-10 -38
-10 -38
-10 -38
-10 -38
-10 -38
-10 -38
-10 -38
-10 -38
-10 -38
-10 -38
-10 -38
-10 -38
-10 -38
-10 -38
40 35
40 35
40 35
40 35
40 35
40 35
40 35
40 35
40 35
40 35
40 35
40 35
40 35
40 35
40 35
40 35
40 35
40 35
40 35
40 35
40 35
40 35
40 35
40 35
40 35
-40 -13
-40 -13
-40 -13
-40 -13
-40 -13
-40 -13
-40 -13
-40 -13
-40 -13
-40 -13
-40 -13
-40 -13
-40 -13
-40 -13
-40 -13
-40 -13
-40 -13
-40 -13
-40 -13
-40 -13
-40 -13
-40 -13
-40 -13
-40 -13
-40 -13
-29 20
-29 20
-29 20
-29 20
-29 20
-29 20
-29 20
-29 20
-29 20
-29 20
-29 20
-29 20
-29 20
-29 20
-29 20
-29 20
-29 20
-29 20
-29 20
-29 20
-29 20
-29 20
-29 20
-29 20
-29 20
-13 -10
-13 -10
-13 -10
-13 -10
-13 -10
-13 -10
-13 -10
-13 -10
-13 -10
-13 -10
-13 -10
-13 -10
-13 -10
-13 -10
-13 -10
-13 -10
-13 -10
-13 -10
-13 -10
-13 -10
-13 -10
-13 -10
-13 -10
-13 -10
-13 -10
18 -29
-30 36
-13 -7
30 -2
-36 18
-21 30
40 -9
8 10
11 -38
-17 -6
-5 40
-21 35
14 -10
14 13
-5 37
-13 18
27 -35
-33 8
-3 36
1 -35
-27 -38
-22 -6
-2 16
12 -16
40 -13
18 -29
-30 36
-13 -7
30 -2
-36 18
-21 30
40 -9
8 10
11 -38
-17 -6
-5 40
-21 35
14 -10
14 13
-5 37
-13 18
27 -35
-33 8
-3 36
1 -35
-27 -38
-22 -6
-2 16
12 -16
40 -13
18 -29
-30 36
-13 -7
30 -2
-36 18
-21 30
40 -9
8 10
11 -38
-17 -6
-5 40
-21 35
14 -10
14 13
-5 37
-13 18
27 -35
-33 8
-3 36
1 -35
-27 -38
-22 -6
-2 16
12 -16
40 -13
18 -29
-30 36
-13 -7
30 -2
-36 18
-21 30
40 -9
8 10
11 -38
-17 -6
-5 40
-21 35
14 -10
14 13
-5 37
-13 18
27 -35
-33 8
-3 36
1 -35
-27 -38
-22 -6
-2 16
12 -16
40 -13
18 -29
-30 36
-13 -7
30 -2
-36 18
-21 30
40 -9
8 10
11 -38
-17 -6
-5 40
-21 35
14 -10
14 13
-5 37
-13 18
27 -35
-33 8
-3 36
1 -35
-27 -38
-22 -6
-2 16
12 -16
40 -13
0 0 
55
56
56
57
54
55
54
53
53
53
54
51
52
55
59
57
51
59
56
57
60
60
52
56
56
54
55
57
54
60
56
56
53
53
56
57
60
55
53
56
60
55
51
52
53
59
55
55
55
57
52
53
55
55
56
59
51
56
51
52
55
54
54
57
56
59
54
52
55
54
57
55
56
59
54
54
59
57
53
57
57
56
54
55
55
53
55
57
60
57
54
52
53
56
51
53
55
59
54
54
51
56
60
52
54
56
56
56
53
60
55
57
57
53
52
55
57
59
59
60
59
56
53
59
55
55
56
56
57
54
55
54
53
53
53
54
51
52
55
59
57
51
59
56
57
60
60
52
56
56
54
55
57
54
60
56
56
53
53
56
57
60
55
53
56
60
55
51
52
53
59
55
55
55
57
52
53
55
55
56
59
51
56
51
52
55
54
54
57
56
59
54
52
55
54
57
55
56
59
54
54
59
57
53
57
57
56
54
55
55
53
55
57
60
57
54
52
53
56
51
53
55
59
54
54
51
56
60
52
54
56
56
56
53
60
55
57
57
53
52
55
57
59
59
60
59
56
53
59
55
